SPARKNaCl/why3-cvc5/sparknacl.adb_79_45_initialization_1.smt2
;; produced by cvc5.drv ;;
(set-logic ALL)
(set-info :smt-lib-version 2.6)
;;; generated by SMT-LIB2 driver
;;; SMT-LIB2 driver: bit-vectors, common part
;;; SMT-LIB2: integer arithmetic
(define-fun __cdiv ((x Int) (y Int)) Int (ite (>= x 0) (div x y) (- (div (- x) y))))
(define-fun __cmod ((x Int) (y Int)) Int (ite (>= x 0) (mod x y) (- (mod (- x) y))))
;; "pow2"
(declare-fun pow2 (Int) Int)

(declare-const two_power_size_minus_one Int)

;; "two_power_size_minus_one_val"
(assert (= two_power_size_minus_one (pow2 (- 16 1))))

;; "min"
(define-fun min ((x Int) (y Int)) Int
  (ite (<= x y) x y))

;; "max"
(define-fun max ((x Int) (y Int)) Int
  (ite (<= x y) y x))

;; "Min_r"
(assert (forall ((x Int) (y Int)) (=> (<= y x) (= (min x y) y))))

;; "Max_l"
(assert (forall ((x Int) (y Int)) (=> (<= y x) (= (max x y) x))))

;; "Min_comm"
(assert (forall ((x Int) (y Int)) (= (min x y) (min y x))))

;; "Max_comm"
(assert (forall ((x Int) (y Int)) (= (max x y) (max y x))))

;; "Min_assoc"
(assert
  (forall ((x Int) (y Int) (z Int)) (= (min (min x y) z) (min x (min y z)))))

;; "Max_assoc"
(assert
  (forall ((x Int) (y Int) (z Int)) (= (max (max x y) z) (max x (max y z)))))

;; "power"
(declare-fun power (Int
  Int) Int)

;; "Power_0"
(assert (forall ((x Int)) (= (power x 0) 1)))

;; "Power_s"
(assert
  (forall ((x Int) (n Int))
    (=> (<= 0 n) (= (power x (+ n 1)) (* x (power x n))))))

;; "Power_s_alt"
(assert
  (forall ((x Int) (n Int))
    (=> (< 0 n) (= (power x n) (* x (power x (- n 1)))))))

;; "Power_1"
(assert (forall ((x Int)) (= (power x 1) x)))

;; "Power_sum"
(assert
  (forall ((x Int) (n Int) (m Int))
    (=>
      (<= 0 n)
      (=> (<= 0 m) (= (power x (+ n m)) (* (power x n) (power x m)))))))

;; "Power_mult"
(assert
  (forall ((x Int) (n Int) (m Int))
    (=> (<= 0 n) (=> (<= 0 m) (= (power x (* n m)) (power (power x n) m))))))

;; "Power_comm1"
(assert
  (forall ((x Int) (y Int))
    (=>
      (= (* x y) (* y x))
      (forall ((n Int))
        (=> (<= 0 n) (= (* (power x n) y) (* y (power x n))))))))

;; "Power_comm2"
(assert
  (forall ((x Int) (y Int))
    (=>
      (= (* x y) (* y x))
      (forall ((n Int))
        (=> (<= 0 n) (= (power (* x y) n) (* (power x n) (power y n))))))))

;; "Power_non_neg"
(assert
  (forall ((x Int) (y Int)) (=> (and (<= 0 x) (<= 0 y)) (<= 0 (power x y)))))

;; "Power_pos"
(assert
  (forall ((x Int) (y Int)) (=> (and (< 0 x) (<= 0 y)) (< 0 (power x y)))))

;; "Power_monotonic"
(assert
  (forall ((x Int) (n Int) (m Int))
    (=> (and (< 0 x) (and (<= 0 n) (<= n m))) (<= (power x n) (power x m)))))

(declare-sort gf16_normal_limb 0)

;; "to_rep"
(declare-fun to_rep (gf16_normal_limb) (_ BitVec 16))

;; "of_rep"
(declare-fun of_rep ((_ BitVec 16)) gf16_normal_limb)

;; "inversion_axiom"
(assert
  (forall ((x gf16_normal_limb))
    (! (= (of_rep (to_rep x)) x) :pattern ((to_rep x)) )))

;; "range_axiom"
(assert true)

;; "coerce_axiom"
(assert
  (forall ((x (_ BitVec 16)))
    (! (= (to_rep (of_rep x)) x) :pattern ((to_rep (of_rep x))) )))

(declare-sort gf32_any_limb 0)

;; "gf32_any_limb'int"
(declare-fun gf32_any_limbqtint (gf32_any_limb) Int)

;; "gf32_any_limb'axiom"
(assert
  (forall ((i gf32_any_limb))
    (and
      (<= (- 65536) (gf32_any_limbqtint i))
      (<= (gf32_any_limbqtint i) 132051011))))

;; "in_range"
(define-fun in_range ((x Int)) Bool
  (and (<= (- 65536) x) (<= x 132051011)))

;; "to_rep"
(define-fun to_rep1 ((x gf32_any_limb)) Int
  (gf32_any_limbqtint x))

;; "of_rep"
(declare-fun of_rep1 (Int) gf32_any_limb)

;; "inversion_axiom"
(assert
  (forall ((x gf32_any_limb))
    (! (= (of_rep1 (to_rep1 x)) x) :pattern ((to_rep1 x)) )))

;; "range_axiom"
(assert
  (forall ((x gf32_any_limb))
    (! (in_range (to_rep1 x)) :pattern ((to_rep1 x)) )))

;; "coerce_axiom"
(assert
  (forall ((x Int))
    (! (=> (in_range x) (= (to_rep1 (of_rep1 x)) x)) :pattern ((to_rep1
                                                                 (of_rep1 x))) )))

;; Goal "def'vc"
;; File "sparknacl.ads", line 454, characters 0-0
(assert
  (not true))

(check-sat)
